Route #1: 1 48 79 67 80 130 20 84 13 8 9 5 2 3 44 37 99 38 94 93 56 55 60 23 46 118 17 71 133 75 1 
Route #2: 1 61 52 54 103 104 105 98 95 45 42 6 11 12 14 89 27 26 21 91 18 66 63 1 
Route #3: 1 59 31 58 29 92 28 25 22 72 73 74 77 64 78 70 69 68 19 82 85 87 90 16 10 7 4 41 40 39 96 36 100 102 53 51 62 49 34 32 134 76 47 1 
Route #4: 1 65 119 117 116 114 129 128 127 126 125 124 123 122 110 33 50 101 97 43 88 15 1 
Route #5: 1 1 35 57 30 24 86 83 121 112 1 
Route #6: 1 131 115 107 109 113 111 81 132 1 
Route #7: 1 120 108 106 1 

Cost 2130.36
Time 3.7251


 * Another infos *

 Iterations: 135 Time: 3.7251 sec - 0.0621 min - 0.0010 horas
0.0000 h 0.0621 min
Problem dimension: 135
